32 32
27
3 3 3 29
3 4 0 13
3 5 13 27
3 6 7 0
3 7 19 0
3 8 10 0
3 9 29 0
3 10 16 22
3 11 29 9
3 12 29 20
3 13 0 0
3 14 22 18
3 15 0 17
3 18 22 0
3 22 16 0
3 23 7 6
3 24 10 8
3 25 19 7
3 27 13 0
4 3 6 29
4 4 25 7
4 5 25 11
4 6 25 26
4 7 25 0
4 10 25 16
4 11 3 18
4 18 3 0
